p cnf 92 237
c weights 1.0 1.0 1.0 1.0 1.0 1.0 1.0 1.0 1.0 1.0 1.0 1.0 1.0 1.0 1.0 1.0 1.0 1.0 1.0 1.0 1.0 1.0 1.0 1.0 1.0 1.0 1.0 1.0 1.0 1.0 1.0 1.0 1.0 1.0 1.0 1.0 1.0 1.0 1.0 1.0 1.0 1.0 1.0 1.0 1.0 1.0 1.0 1.0 1.0 1.0 1.0 1.0 1.0 1.0 1.0 1.0 1.0 1.0 1.0 1.0 1.0 1.0 1.0 1.0 1.0 1.0 1.0 1.0 0.2 1.0 0.8 1.0 0.2 1.0 0.8 1.0 0.2 1.0 0.8 1.0 0.3 1.0 0.7 1.0 0.0 1.0 1.0 1.0 0.3 1.0 0.7 1.0 0.0 1.0 1.0 1.0 0.3 1.0 0.7 1.0 0.0 1.0 1.0 1.0 0.1 1.0 0.9 1.0 0.1 1.0 0.9 1.0 0.1 1.0 0.9 1.0 0.1 1.0 0.9 1.0 0.4 1.0 0.6 1.0 0.0 1.0 1.0 1.0 0.0 1.0 1.0 1.0 0.0 1.0 1.0 1.0 0.4 1.0 0.6 1.0 0.0 1.0 1.0 1.0 0.0 1.0 1.0 1.0 0.0 1.0 1.0 1.0 0.4 1.0 0.6 1.0 0.0 1.0 1.0 1.0 0.0 1.0 1.0 1.0 0.0 1.0 1.0 1.0 0.4 1.0 0.6 1.0 0.0 1.0 1.0 1.0 0.0 1.0 1.0 1.0 0.0 1.0 1.0 1.0 
1 2 0
-1 -2 0
3 4 0
-3 -4 0
5 6 0
-5 -6 0
7 8 0
-7 -8 0
9 10 0
-9 -10 0
11 12 0
-11 -12 0
13 14 0
-13 -14 0
15 16 0
-15 -16 0
17 18 0
-17 -18 0
19 20 0
-19 -20 0
21 22 0
-21 -22 0
23 24 0
-23 -24 0
25 26 0
-25 -26 0
27 28 0
-27 -28 0
29 30 0
-29 -30 0
31 32 0
-31 -32 0
33 34 0
-33 -34 0
35 -1 0
1 -35 0
36 -2 0
2 -36 0
37 -3 0
3 -37 0
38 -4 0
4 -38 0
39 -5 0
5 -39 0
40 -6 0
6 -40 0
41 -1 -7 0
-41 1 0
-41 7 0
42 -1 -8 0
-42 1 0
-42 8 0
43 -2 -7 0
-43 2 0
-43 7 0
44 -2 -8 0
-44 2 0
-44 8 0
45 -3 -9 0
-45 3 0
-45 9 0
46 -3 -10 0
-46 3 0
-46 10 0
47 -4 -9 0
-47 4 0
-47 9 0
48 -4 -10 0
-48 4 0
-48 10 0
49 -5 -11 0
-49 5 0
-49 11 0
50 -5 -12 0
-50 5 0
-50 12 0
51 -6 -11 0
-51 6 0
-51 11 0
52 -6 -12 0
-52 6 0
-52 12 0
53 -13 0
13 -53 0
54 -14 0
14 -54 0
55 -15 0
15 -55 0
56 -16 0
16 -56 0
57 -17 0
17 -57 0
58 -18 0
18 -58 0
59 -19 0
19 -59 0
60 -20 0
20 -60 0
61 -17 -11 -21 0
-61 17 0
-61 11 0
-61 21 0
62 -17 -11 -22 0
-62 17 0
-62 11 0
-62 22 0
63 -17 -12 -21 0
-63 17 0
-63 12 0
-63 21 0
64 -17 -12 -22 0
-64 17 0
-64 12 0
-64 22 0
65 -18 -11 -21 0
-65 18 0
-65 11 0
-65 21 0
66 -18 -11 -22 0
-66 18 0
-66 11 0
-66 22 0
67 -18 -12 -21 0
-67 18 0
-67 12 0
-67 21 0
68 -18 -12 -22 0
-68 18 0
-68 12 0
-68 22 0
69 -19 -9 -23 0
-69 19 0
-69 9 0
-69 23 0
70 -19 -9 -24 0
-70 19 0
-70 9 0
-70 24 0
71 -19 -10 -23 0
-71 19 0
-71 10 0
-71 23 0
72 -19 -10 -24 0
-72 19 0
-72 10 0
-72 24 0
73 -20 -9 -23 0
-73 20 0
-73 9 0
-73 23 0
74 -20 -9 -24 0
-74 20 0
-74 9 0
-74 24 0
75 -20 -10 -23 0
-75 20 0
-75 10 0
-75 23 0
76 -20 -10 -24 0
-76 20 0
-76 10 0
-76 24 0
-25 21 9 0
25 -21 0
25 -9 0
-27 23 11 0
27 -23 0
27 -11 0
77 -13 -25 -29 0
-77 13 0
-77 25 0
-77 29 0
78 -13 -25 -30 0
-78 13 0
-78 25 0
-78 30 0
79 -13 -26 -29 0
-79 13 0
-79 26 0
-79 29 0
80 -13 -26 -30 0
-80 13 0
-80 26 0
-80 30 0
81 -14 -25 -29 0
-81 14 0
-81 25 0
-81 29 0
82 -14 -25 -30 0
-82 14 0
-82 25 0
-82 30 0
83 -14 -26 -29 0
-83 14 0
-83 26 0
-83 29 0
84 -14 -26 -30 0
-84 14 0
-84 26 0
-84 30 0
85 -15 -27 -31 0
-85 15 0
-85 27 0
-85 31 0
86 -15 -27 -32 0
-86 15 0
-86 27 0
-86 32 0
87 -15 -28 -31 0
-87 15 0
-87 28 0
-87 31 0
88 -15 -28 -32 0
-88 15 0
-88 28 0
-88 32 0
89 -16 -27 -31 0
-89 16 0
-89 27 0
-89 31 0
90 -16 -27 -32 0
-90 16 0
-90 27 0
-90 32 0
91 -16 -28 -31 0
-91 16 0
-91 28 0
-91 31 0
92 -16 -28 -32 0
-92 16 0
-92 28 0
-92 32 0
-33 7 29 31 0
33 -7 0
33 -29 0
33 -31 0
33 0